100 8
844 636
793 680
608 711
829 508
687 327
573 135
749 212
825 732
410 738
477 242
742 675
745 639
684 798
868 780
373 789
861 681
375 396
293 256
828 694
834 910
726 659
862 483
866 843
695 650
702 384
75 509
601 301
935 570
216 144
802 440
813 925
502 719
834 855
289 194
678 79
825 395
197 443
385 339
168 186
511 385
774 626
70 448
850 280
710 807
520 575
918 926
773 778
228 140
674 426
529 230
521 373
824 667
647 142
742 556
652 192
874 514
915 781
652 300
606 215
857 690
531 561
139 374
880 879
859 379
284 242
191 439
594 323
677 894
944 456
56 449
692 341
933 570
875 453
823 303
830 845
756 74
606 749
844 768
849 849
681 417
118 505
678 143
838 815
798 900
836 657
484 353
828 824
558 489
734 64
487 325
505 573
871 490
689 580
175 524
707 360
841 717
558 498
749 141
554 258
539 272
